(declare-fun v5 () (_ BitVec 16))
(declare-fun v8 () (_ BitVec 11))
(declare-fun v9 () (_ BitVec 9))
(declare-fun v11 ()Bool         )
(assert
(let (($e14 (_ bv0 10)))
(let (($e22 (_ bv0 7)))
(let (($e23 (_ bv127 7)))
(let (($e180                    $e23      ))
(let (($e181 (concat $e180 v9)))
(let (($e182 (concat $e22 v9)))
(let (($e183 (bvand v5 $e182)))
(let (($e184 (bvand $e183 $e181)))
(let (($e185 (concat $e14 v11)))
(let (($e188               v8                ))
(let (($e189               $e188                ))
(let (($e190      (bvult        $e189  $e185)         ))
(let (($e191             $e190           ))
(let (($e192                  $e191 ))
(let (($e193              $e192          ))
(let (($e194             $e193 ))
             (ite        $e194  $e183 $e184)
                                                                                                                                                                                                                                                                                                                                                                                                                                                                                                                                                                                                                                                                                                                                                                                                                                                                                                                                                                                                                                                                                                                                                                                                                                                                                                                                                                                                                                                                                                                                                                                                                                                                                                                                                                                                                                                                                                                                                                                                                                                                                                                                                                                                                                                                                                                                                                                                                                                                                                                                                                                                                                                                                                      )))))))  ))))))                                                                                                                                            ))       )             )
